40	100	100	100
72	3	85
79	11	93
92	35	95
78	46	75
80	40	67
89	11	86
76	28	69
73	11	85
99	25	75
87	23	70
87	12	97
74	2	85
74	42	93
74	22	98
89	49	99
73	4	80
81	28	73
92	12	74
80	32	88
78	38	78
75	13	79
70	34	69
80	7	67
76	1	81
87	15	80
67	36	82
68	1	75
97	39	92
86	48	90
81	29	96
81	5	68
81	36	72
74	47	71
85	24	86
73	15	73
87	45	75
97	20	83
75	33	88
78	10	79
66	10	89
